
 102   30
  10   10   10   10   10   10   10   10   10   10   10   10   10   10   10   10   10   10   10   10   10   10   10   10   10   10   10   10   10   10

   0   0   0   0   0   0   0   0   0   0   0   0   0   0   0   0   0   0   0   0   0   0   0   0   0   0   0   0   0   0   0  25 2 3 4 5 6 7 8 9 10 11 13 14 16 17 19 20 21 22 23 24 25 26 27 31 32 
   2   0   2   0   0   0   0   0   0   0   0   0   0   0   0   0   0   1   0   0   0   0   0   0   1   0   0   0   0   0   0  16 101 100 72 56 54 53 52 49 45 43 42 41 40 36 30 12 
   7   0   0   0   0   0   0   0   0   0   0   0   0   0   1   3   0   0   0   0   0   3   0   0   0   0   0   0   1   0   0  21 101 100 99 71 70 65 63 62 60 55 53 52 51 49 48 47 44 43 39 36 28 
   5   0   0   0   3   0   1   1   0   0   0   5   0   1   0   0   0   0   3   0   0   0   3   0   0   0   0   0   0   0   0  12 100 67 65 56 54 53 51 49 43 37 35 18 
   9   0   8   0   0   0   0   0   0   0   0   0   0   0   0   0   0   0   0   0   0   0   0   0   0   0   0   0   0   0   0  21 100 98 97 72 67 65 63 62 57 56 55 54 52 48 47 46 45 42 38 36 34 
   2   0   0   0   0   0   0   0   0   0   0   0   0   0   0   0   0   0   0   0   0   0   0   2   0   0   0   0   0   4   0  12 101 67 66 65 64 61 48 43 41 40 29 15 
   1   0   0   1   5   0   0   7   0   0   0   0   0   0   0   0   0   0   0   0   2   0   0   0   0   0   0   0   0   0   2  18 101 99 72 71 70 67 64 62 60 57 56 54 49 48 46 43 42 39 
   1   0   0   8   0   0   6   0   2   0   0   0   0   4   0   0   0   0   0   0   0   0   0   0   0   0   3   0   0   0   0  13 100 98 72 70 55 54 52 49 48 47 38 37 34 
   2   4   0   0   0   0   0   0   0   0   0   7   0   0   0   0   0   6   6   0   0   0   0   3   0   0   0   0   0   0   0  17 98 96 94 91 90 83 72 71 66 63 61 60 59 54 49 46 33 
   8   0   0   0   0   0   0  10   0   0   0   0   0   0   0   0   0   0   6   0   0   0   0   0   0   1   0   0   3   0   8  21 100 99 98 94 92 91 90 87 70 67 66 65 63 62 60 59 55 49 48 46 42 
  10   0   6   0   0   0   0   0   0   0   0   0   0   0   0   0   0   0   0   0   0   0   0   0   0   0   0   0   0   0   0  13 97 96 72 71 70 62 51 48 47 46 43 42 38 
   4   0   0   0   0   0   0   0   0   0   0   0   0   0   0   0   0   0   0   0   0   0   5   8   0   0   0   0   0   0   0  14 97 95 94 93 87 66 63 62 61 59 55 48 46 34 
   5   0   0   0   0   1   0   0   0   1   0   0   0   0   0  10   0   0   0   0   0   0   0   0   0   0   0   0   0   0   0  22 101 98 97 95 93 90 86 85 82 78 77 72 66 63 61 60 59 57 56 55 53 50 
   1   0   0   0   0   7   0   0   0   8   1   0   0   0   0   5   0   0   0   0   0   0   0   6   0   0   0   0   0   6   3   9 101 99 88 81 64 59 52 40 29 
  10   0   0   0   0   0   0   0   0   0   0   0   0   0   7   0   0   0   0   0   0   0   0   0   6   0   0   0   0   0   0  21 100 99 98 96 95 94 93 90 89 85 78 72 70 69 68 62 60 56 55 53 44 
   4   0   6   0   0   0   0   0   0   0   0   0   4   0   0   0   0   0   0   0   0   0   8   0   0   0   0   1   0   6   0  15 100 96 92 91 90 87 71 65 63 60 55 49 48 47 46 
   4   0   0   0   0   4   0   0   0   0   0   0   0   0   0   7   4   0   0   2   0   6   0   0   0   0   0   0   0   0   0  14 100 99 97 94 87 85 82 72 70 56 48 46 42 37 
   5   0   0   0   0   0   0   6   0   0   0   0   0   8   0   0   0   0   0   0   0   0   0   0   0   0   0   5   0   0   0  19 99 97 96 94 92 91 90 85 82 72 66 63 62 60 59 55 48 46 42 
   7   0   0   0   6   0   0   0   0   0   0   0   0   0   0   0   0   0   0   4   0   0   0   0   0   0   0   0  10   9   0  16 100 97 96 95 94 93 87 85 78 72 66 59 56 55 46 44 
   1   0   0   0   0   0   8   6   0   0   0   0   0   0   0   0   0   0   0   0   0   0   7   0   0   0   0   0   0   0   0  13 99 98 91 82 79 78 71 67 62 61 57 46 43 
  10   0   0   0   0   0   0   0   3   0   0   0   0   0   0   8   0   0   0   0   0   0   0   0   0   0   0   0   0   0   0  19 100 98 96 94 89 86 82 81 80 79 78 77 70 69 65 61 58 56 43 
   3   0   0   0   0   0   0   0   0   0   0   0   0   0   0   0   0   0   5   0   1   0   0   6   0   0   0   0  10   0   9  15 99 98 93 91 90 85 72 69 64 62 59 58 57 52 42 
   5   0   0   0   0   0   0   7   0   0   0   0   0   6   0   0   0   0   0   4   8   0   0   0   0   0   0   0   0   6   4  13 101 99 98 97 95 94 93 90 78 72 65 46 39 
   4   0   0   0   0   0   0   0   0   0   0   0   0   0   0   0   0   0   3   0   0   0   0   0   0   0   5   0   0   0   0  16 100 96 93 92 91 90 88 87 85 69 68 63 60 58 48 47 
   5   0   0   0   7   0   0   0   5   0   0   0   0   0   0   0   0   0   0   0   0   0   7   0   0   0   0   0   3   0   0  10 96 94 90 88 78 70 63 61 44 38 
   2   0   0   0   0   0   0   0   6   0   0   0   4   0   0   0   0   8   0   0   0   0   0   0   0  10   0   0   0   0   0  18 100 97 96 94 90 89 88 87 85 82 79 78 71 66 59 56 54 48 
   3   0   0   0   0   0   0   0   0   0   0   4   0   0   0   0   0   0   0   6   0   0   0   0   0   0   0   0   0   0   7  14 97 93 92 90 88 87 85 82 78 71 70 62 56 46 
  10   0   0   0   0   0   0   0   0   0   0   0   0   5   0   0   0   0   0   0   0   9   0   0   3   0   0   0   0   0   0  10 91 90 87 86 82 75 57 50 46 42 
   3   0   0   0   0   0   0   0   6   0   0   0   5   0   6   0   0   3   6   0   0   0   0   0   0   0   0   0   0   0   0  13 98 96 95 94 90 89 85 78 69 68 62 53 44 
   7   0   0   0   2   0   0   0   0   0   0  10   0   0   0   0   0   0   0   0   0   0   0   0   0   0   5   0   0   0   9  20 99 98 96 95 91 90 89 87 85 84 83 80 77 74 70 69 67 60 59 58 
   3   0   8   0   0   8   0   0   0   0   0   0   0   5   0   0   0   0   0   0   6   0   0   0   6   0   0   0   0   3   0  13 97 96 93 90 88 86 85 82 79 78 66 59 46 
   7   0   5   0   0   0   0   0   0   5   0   4   0   0   0   0   0   4   0   0   0   0   0   7   5   0   0   0   0   0   6  13 99 97 95 93 91 87 85 83 81 79 78 75 46 
  10   0   0   0   0   0   0   0   0   0   0   0   7   0   0   0   7   0   0   0   0   0   0   0   0   6   4   4   0   0   0  18 101 100 93 92 88 87 85 84 82 81 78 77 75 70 69 68 62 58 
   7   0   0   0   0   0   0   0   0   6   0   0   0   0   0   0   0   0   0  10   0   0   4  10   0   0   0   0   7   0   8  17 99 96 92 91 90 86 85 84 82 80 78 75 69 68 64 60 58 
   5   0   7   0   0   0   0   0   0   0   0   0   0   0   5   0   0   5  10   0   0   0   0   0   0   0   0   0   0   0   0  12 101 96 87 86 85 82 79 70 68 59 58 48 
   3   0   0   0   0   0   7   0   0   0   0   0   0   0   0   0   0   0   3  10   0   0   0   0   0   0   0   8   0   0   0  15 95 93 90 89 88 86 84 82 80 79 77 74 66 59 58 
   7   0   0   0   0   0   0   7   7   0   0   0   0   0   0   0   9   0   0   0   0   0   0   3   0   0   0   0   0   0   0  15 95 93 92 91 90 88 84 83 79 78 76 74 71 68 60 
   8   0   5   0   0   0   0   0   0   0   5   0   0   4   0   0   0   0   0   5   0   3   0   0   0   0   0   0   0   0   0  14 95 92 91 87 85 84 80 79 77 76 74 68 60 59 
   8   0   0   0   0   0   0   0   0   0   8   0   0   0   0   0   0   7   0   0   0   0  10   0   8   0   0   0   0   0   0  14 96 92 91 89 87 86 84 83 80 77 75 69 68 58 
   8   0   0   0   0   0   0   0   0   0   0   0   0   0   0   3   0   0   0   0   0   5   0   0   0   0   0   0   4   0   0  11 97 96 93 82 79 78 77 76 74 71 68 
   3   0   0   0   0   0   0   0   0   0   0   0   0   0  10   0   0   0   7   0   0   0   0   0   0   0   0   0   0   0   0  10 96 95 88 86 85 79 78 75 70 58 
   3   0   0   0  10   9   0   0   0   0   0   0   0   0   8   0   0   0   0   0   0   0   0   0   5   0   0   0   0   0   0   9 88 83 81 79 78 77 76 68 61 
   9   0   0   0   0   0   4   0   0   0   7   0   0   0   0   0   0   0   0   0   0   0   0   0   0   0   0   4   0   0   0   9 93 90 87 85 84 83 74 68 59 
   1   0   9   0   5   0   0   0   0   0   8   0   0   0   0   0   0   9   0   0   0   0   0   0   0   0   0   0   0   0   0   9 92 86 84 82 79 77 75 74 58 
   3   0   0   0   0   0   0   0   0   0   0   0   0   0   0   6   0   0   0   0   0   0   0   0   8   6   0   5   0   4   0   9 90 87 82 79 78 74 70 69 68 
   5   0  10   0   0   5   0   0   0   0   0   0   0   0   0   0   0   0   0   0   0   0   0   0   0   0   0   0   0   6   0   8 89 84 80 77 74 69 68 58 
   7   0   0   0   0   0   0   0   5   0   0   5   0   0   0   0   0   0   0   0   0   0   0   0   0   0   0   0   0   0   0   8 95 94 86 82 81 78 75 74 
  10   0   0   0   0   0   0   0   0   0   0   0   0   0   0   0   0   0   0   0   0   0   0  10   0   0   0   0   8   0   0   7 83 81 80 77 76 75 74 
   9   0   0   0   9   0   0   8   0   0   0   0   0   0   0   0   0   0   0   0   0   0   0   0   0   0   0   0   0   0   0   7 97 93 82 78 75 74 73 
   4   0   0   0   0   6   5   0   0   9   0   0   0   0   0   0   0   0   0   0   0   6   0   0   0   0   0   0   0   6   0   6 89 83 81 76 74 69 
   9   0   6   0   0   0   0   0  10   0   0   0   0   0   0   0   0   0   7   0   0   0   0   0   0   0   0   0   0   0   0   6 98 86 79 76 75 73 
  10   0   6   0   0   0   0   0   0   8   0   0   0   0   0   0   0   0   0   0   0   0   0   0   0   0   0   0   0   0   0   5 82 80 79 78 68 
   8   0   0   0   0   0   0   0   0   0   0   0   5   7   6   7   0   0   0   0   0   0   0   0   0   0   0   0   0   0   0   5 87 84 83 80 76 
   2   0   0   0   0   0   0   8   0   0   0   0   0   0   0   0  10   0   0   0   0   0   7   0   0   0   0   0   0   0   0   5 95 77 75 74 73 
   2   0   0   0   0   0   0   0   0   0   0   0   0   0   0   0   0   0   0   7   0   6   0   0   0   0   0   0   0   0   0   4 88 81 74 73 
   7   0   0   0   0   0   0   0   0   0   0   0   0   8   0   0   9   0   5   0   0   0   0   0   0   0   0   9   0   8   6   4 91 83 74 73 
   2   3   0   0   4   0   0   0   0   0   6   0   0   0   0   0   0   0   0   0   0   0   0   0   0   0   8   0   0   2   0   4 94 92 81 76 
   8   3   0   0  10   0   0   4   0   0   0   0   0   0   0   0   0   0   0   0   0   0   0   0   0   0   8   0   0   0   0   2 76 73 
   8   0   0   0   3   0   0   6   0   0   8   0   0  10   0   0   0   0   0   0   0   0   0   0   0   0   0   0   0   0   0   2 75 73 
   9   0   0   0   0   0   0   0   0   0   0   0   0   0   0   0   0   0   0   0   5   5   0   0   0   0   0   0   5   0   0   2 81 73 
   2   0   0   0   0   0   0   3   8   0   0   0   5   0   0   0   0   4   0   0   0   0   0   0   0   0   0   9   0   0   0   2 74 73 
   6   0   0   0   0   0   0   0   0   0   0   0   7   0   0   0   0   0   0   0   0   0   0   0   0   5   0   0   0   0   6   2 86 74 
   9   0   0   0   0   0   0   0   0   0   0   0   4   0   8   0   0   0   0   0   0  10   0   0   0   0   0   0   0   0   0   2 79 75 
   8   0   0   0   0   0   0   0   0   0   0   0   0   0   0   0   0   0   0   0   0   0   0   0   0   0   0   0   6  10   0   2 89 77 
  10   0   0   0   0   0   0   3   6   0   0   0   4   0   0  10   0   0   0   0   0   0   0   0   0   0   0   0   0   0   0   2 88 85 
   4   6   0   0   0   0   7   0   0   0   0   0   0   0   0   0   0   0   0   0   0   3   0   0   0   0   0   0   0   0   0   1 68 
   2   0   0   0   0   0   0   0   0   0   0   0  10   0   0   0   0   0   0   4   0   0   0   0   0   0   0   0   0   0   0   1 68 
   6   0   0   0   6   4   5   0   0   9   0   0   0   6   0   0   0   0   0   0   0   0   0   0   0   0   0   0   6   4  10   1 73 
   8   0   0   0   0   0   0   0   9   0   0   5   0   0   0   3   0   0   0   0   0   0   0   0   0   0   0   0   0   5   0   1 73 
   3   9   0   0   0   8   0   0   0   0   7   0   0   0   0   0   0   0   8   0   0   0   0   0   0   0   0   0   0   0   0   1 73 
   3   0   0   0   0   0   0   0   5   0   0   0   0   0   5   0   0   0   0   0   0   0   0   0   0   0   0   0   0   0   4   1 75 
   5   0   0   0   7   0   0   0   0   0   0   0   0   0   0   0   0  10   5   0   0   0   0   0   9   7   0   0   0   4   0   1 88 
  10   0   0   6   4   0   0   0   8   0   0   0   0   0   0   3   0   0   0   0   0   0   0   0   0   0   0   3   0   0   0   1 102
   2   0   0   0   0   0   0   0   5   0   0   0   0   0   0   7   0   0   0   0   0   0   0   0   0   0   0   0   0   0   0   1 102
   5   9   0   0   0   8   0   0   0   9   0   0   0   0   0   0   5   0   0   0   0   0   0   0   0   0   0   0   0  10   0   1 102
   5   0   5   0   0   0   0   0   0   0   0   0   0   0   0   0   0   0   0   0  10   0   0   0   0   0   0   0   0   0   0   1 102
   7   7   6   0   0   3   0   0   0   0   0   0   0   0   0   0   2   0   0   0   0   0   0   0   0   7   0   0   5   0   0   1 102
   6   0   4   0   0   0   7   0   0   0   4   0   0   0   0   0   0   0   0   6   0   8   0   0   0   0   0   0   0   0   0   1 102
   8   0   0   0   0   0   0   0   0   0   8   0   0   0   5   0   0   0   0   0   0   0   0   0   0   4   0   4   8   0   0   1 102
   4   0   0   0   0   0   0   0   8   0   0   0   0   0   0   0   5   0   0   0   6   2   0   6   0   0   0   0   0   0   0   1 102
   6   0   0   0   0   0   0   6   0   0   0   0   0   0   0   0   0   7   0   0   0   0   4   0   0   8   0   9   0   0   0   1 102
  10  10   0   0   0   0   0   0   0   0   4   0   8   0   0   0   0   0   0   7   0   0   6   0   0   0   0   0   0   0   0   1 102
   8   0   4   0   0   0   0   0   0   0   0   0   9   0   0   0   4   0   0   0   0   0   4   0   0   0   0   5   0   0   0   1 102
  10   0   0   7   0   0   9   0   0   1   0   0   0   0   0   0   7   0   0   0   0   0   0   0   0   0   0   0   0   0   0   1 102
   3   0   0   0   9   0   0   7   0   0   0   0   0   0   0   0   0   8   0   0   0   0   0   0   0   0   0   0   0   0   0   1 102
   8   0   0   0   0   0   0   0   5   0   0   0   0   0   4   0   0   0   0   0   0   0   0   0   0   0   0   0   0   0   0   1 102
   3   0   0   0   0   3   0   0   0   4   0   0   0   0   0   0   0   0   0   0   0   0   0   0   0   0  10   0   0   0   0   1 102
   5   0   0   0   0   0   0   0   0   0   0   0   0   0   0   0   6   0   0   4   0   0   0   5   0   0   3   6   6   0   4   1 102
  10   6   0   0   0   0   7   0   0   0   0   0   0   0   0   6   0   0   0   8   0   0   0   0   0   0   0   0   0   0   4   1 102
   1   0   0   0   7   0   0   0   0   0   0   0   0   0   0   0   0   0   7   0   0   0   0   0   9   0   0   0   0   0   0   1 102
   9   0   0   0   0  10   0   0   0   0   0   0   0   0   0   0   4   0   0   0   8   0   0   0   0   0   0   0   0   0   0   1 102
   2   0   0   0   8   0   0   7   5   0   0   0   0   8   0   0   0   0   0   0   0   0   0   0   0   0   0  10   0   4   0   1 102
   7   0   0   0   0   0   0   0   5   0   0   0   0   0   0   0   0   0   0   0   0   0   0   0   0   0   0   0   8   0   0   1 102
   4   0   5   6   0   0   0   0   0   0   0   0   0   0   0   0   0   0   0   0   0   8   0   0   0   0   0   0   0   0   0   1 102
   1   0   0   0   0   8   0   0   0   0   0   0   0   0   0   0   0   0   0   0   0   0   0   0   0   0   0   0   0   0   0   1 102
  10   4   0   0   0   0   0   0   0   0   0   0   0   0   7   0   0   0   0   0   0   0   0   0   0   0   6   0   0   9   6   1 102
   1   5   0   0   3   0   0   0   0   0   0   0   0   0   0   0   0   0   0   0   0   0   7   0   6   0   0   8   0   0   0   1 102
   7   0   0   0   0   0   0   0   0   0   0   8   0   0   0   0   0   0   9   0   8   0   0   0   0   0   9   0   0   0   6   1 102
   5   0   0   0   0   0   0   0   5   0   0   0   0   0   0   0   0   0   0   0   0   0   0   0   0   0   0   0   0   0   0   1 102
   5   0   0   0   0   0   0   0   0   0   0   0   0   0   0   0   0   0   0   7   0   8   0   0   0   0   0   6   0   5   0   1 102
   9   0   0   8   0   0   0   0   7   0   0   0   0   0   0   0   0   0   0   0   0   8   0   0   0   0   5   0   0   9   0   1 102
   0   0   0   0   0   0   0   0   0   0   0   0   0   0   0   0   0   0   0   0   0   0   0   0   0   0   0   0   0   0   0   0 
